7
5
0 1
0 2
1 2
1 3
2 3
3 4
-1
5
0 1
0 2
1 2
1 4
2 4
4 3
-1
10
0 1
0 2
1 3
1 2
2 4
4 9
4 6
5 2
5 7
6 5
8 7
-1
2
0 1
-1
1
-1
4
0 1
0 2
0 3
1 2
1 3
2 3
-1
6
0 1
0 2
0 3
0 4
0 5
1 2
1 3
1 4
2 3
2 4
3 4
-1
